projected/problems_b25_r0_d7_m100_s666/_DIMACS/b25_d7_r0_s666_095.cnf
p cnf 210 314 25
c p show 1 2 3 4 5 6 7 8 9 10 11 12 13 14 15 16 17 18 19 20 21 22 23 24 25
-142 -8 11 0
-143 -25 0
-143 3 0
-144 143 142 0
-145 12 13 0
-146 -22 0
-146 -23 0
-147 146 145 0
-148 147 0
-148 144 0
-149 -25 7 0
-150 10 0
-150 7 0
-151 150 149 0
-152 15 0
-152 -19 0
-153 2 0
-153 10 0
-154 153 152 0
-155 154 0
-155 151 0
-156 155 0
-156 148 0
-157 -22 0
-157 23 0
-158 -1 0
-158 -18 0
-159 158 157 0
-160 1 18 0
-162 22 -23 0
-163 162 160 0
-164 163 0
-164 159 0
-165 -8 0
-165 2 0
-166 16 5 0
-168 166 165 0
-169 168 164 0
-170 -9 -25 0
-171 10 0
-171 21 0
-172 171 0
-172 170 0
-174 -25 0
-174 -11 0
-175 -21 0
-175 -4 0
-176 175 0
-176 174 0
-177 176 172 0
-178 177 169 0
-180 178 0
-180 156 0
-181 2 0
-181 -7 0
-182 -24 4 0
-183 182 0
-183 181 0
-184 18 17 0
-186 -5 0
-186 -16 0
-187 186 184 0
-188 187 183 0
-189 -20 11 0
-190 -5 20 0
-192 190 189 0
-193 21 -23 0
-194 -5 -3 0
-195 194 0
-195 193 0
-196 195 192 0
-198 196 0
-198 188 0
-199 21 0
-199 -17 0
-200 -25 -10 0
-201 200 199 0
-202 7 14 0
-203 13 -10 0
-204 203 0
-204 202 0
-205 204 201 0
-206 17 16 0
-207 -13 16 0
-208 207 0
-208 206 0
-209 -12 -11 0
-210 21 0
-210 24 0
-26 -24 0
-26 -21 0
-27 26 210 0
-161 27 209 0
-167 -21 -24 0
-173 24 21 0
-179 173 0
-179 167 0
-185 12 0
-185 11 0
-191 185 179 0
-197 191 0
-197 161 0
-28 197 208 0
-29 28 0
-29 205 0
-30 29 198 0
-31 30 0
-31 180 0
-32 -15 -10 0
-33 10 15 0
-34 33 0
-34 32 0
-35 18 -7 0
-36 35 0
-36 34 0
-37 11 -20 0
-38 -1 0
-38 -4 0
-39 4 0
-39 1 0
-40 39 38 0
-41 40 0
-41 37 0
-42 1 4 0
-43 -4 -1 0
-44 43 0
-44 42 0
-45 -11 0
-45 20 0
-46 45 0
-46 44 0
-47 46 41 0
-48 47 0
-48 36 0
-49 44 45 0
-50 37 40 0
-51 50 0
-51 49 0
-52 15 0
-52 10 0
-53 -10 0
-53 -15 0
-54 53 52 0
-55 -18 0
-55 7 0
-56 55 54 0
-57 56 0
-57 51 0
-58 57 48 0
-59 -22 0
-59 2 0
-60 -7 0
-60 -8 0
-61 60 0
-61 59 0
-62 8 -6 0
-63 -21 -6 0
-64 63 62 0
-65 21 0
-65 6 0
-66 -8 0
-66 6 0
-67 66 65 0
-68 67 0
-68 64 0
-69 68 61 0
-70 69 58 0
-71 -2 -3 0
-72 -7 18 0
-73 72 71 0
-74 -22 24 0
-75 17 0
-75 2 0
-76 75 74 0
-77 76 0
-77 73 0
-78 2 0
-78 -16 0
-79 -18 0
-79 17 0
-80 79 78 0
-81 -3 0
-81 18 0
-82 -12 1 0
-83 82 0
-83 81 0
-84 83 80 0
-85 3 -18 0
-86 12 0
-86 -1 0
-87 86 85 0
-88 -2 16 0
-89 18 -17 0
-90 89 0
-90 88 0
-91 90 87 0
-92 91 0
-92 84 0
-93 92 0
-93 77 0
-94 93 0
-94 70 0
-95 -16 21 0
-96 -1 0
-96 21 0
-97 96 0
-97 95 0
-98 1 -21 0
-99 16 0
-99 -21 0
-100 99 0
-100 98 0
-101 100 97 0
-102 17 18 0
-103 -8 0
-104 103 0
-104 102 0
-105 104 101 0
-106 -6 -1 0
-107 1 6 0
-108 107 0
-108 106 0
-109 -17 -15 0
-110 109 0
-110 108 0
-111 20 0
-112 111 35 0
-113 112 110 0
-114 113 105 0
-115 -19 13 0
-116 -22 0
-116 5 0
-117 116 115 0
-118 -10 0
-118 10 0
-119 9 -13 0
-120 119 0
-120 118 0
-121 -9 0
-121 13 0
-122 10 -10 0
-123 122 0
-123 121 0
-124 123 120 0
-125 124 117 0
-126 121 122 0
-127 118 119 0
-128 127 0
-128 126 0
-129 19 0
-129 -13 0
-130 22 -5 0
-131 130 0
-131 129 0
-132 131 128 0
-133 132 0
-133 125 0
-134 158 0
-134 166 0
-135 -9 0
-135 21 0
-136 -4 0
-136 1 0
-137 136 0
-137 135 0
-138 137 0
-138 134 0
-139 138 0
-139 133 0
-140 139 0
-140 114 0
-141 140 94 0
141 31 0
-158 -160 0
-160 -158 0
-162 -157 0
-157 -162 0
-179 -27 0
-185 -209 0
-209 -185 0
-44 -40 0
-40 -44 0
-45 -37 0
-51 -47 0
-47 -51 0
-34 -54 0
-54 -34 0
-55 -35 0
-56 -36 0
-63 -65 0
-65 -63 0
-66 -62 0
-62 -66 0
-85 -81 0
-82 -86 0
-86 -82 0
-87 -83 0
-88 -78 0
-79 -89 0
-89 -79 0
-90 -80 0
-80 -90 0
-96 -98 0
-95 -99 0
-99 -95 0
-121 -119 0
-119 -121 0
-122 -118 0
-128 -124 0
-129 -115 0
-116 -130 0
-130 -116 0
-131 -117 0
-117 -131 0
