projected/problems_b25_r0_d7_m100_s666/b25_d7_r0_s666_095.smt2
(set-logic QF_UF)
(declare-fun A0 () Bool)
(declare-fun A1 () Bool)
(declare-fun A2 () Bool)
(declare-fun A3 () Bool)
(declare-fun A4 () Bool)
(declare-fun A5 () Bool)
(declare-fun A6 () Bool)
(declare-fun A7 () Bool)
(declare-fun A8 () Bool)
(declare-fun A9 () Bool)
(declare-fun A10 () Bool)
(declare-fun A11 () Bool)
(declare-fun A12 () Bool)
(declare-fun A13 () Bool)
(declare-fun A14 () Bool)
(declare-fun A15 () Bool)
(declare-fun A16 () Bool)
(declare-fun A17 () Bool)
(declare-fun A18 () Bool)
(declare-fun A19 () Bool)
(declare-fun A20 () Bool)
(declare-fun A21 () Bool)
(declare-fun A22 () Bool)
(declare-fun A23 () Bool)
(declare-fun A24 () Bool)
(assert (let ((.def_0 (not A7))) (let ((.def_1 (or .def_0 A10))) (let ((.def_2 (not .def_1))) (let ((.def_3 (not A2))) (let ((.def_4 (or A24 .def_3))) (let ((.def_5 (and .def_4 .def_2))) (let ((.def_6 (not .def_5))) (let ((.def_7 (or A11 A12))) (let ((.def_8 (or A21 A22))) (let ((.def_9 (not .def_8))) (let ((.def_10 (or .def_9 .def_7))) (let ((.def_11 (and .def_10 .def_6))) (let ((.def_12 (not A24))) (let ((.def_13 (or .def_12 A6))) (let ((.def_14 (and A9 A6))) (let ((.def_15 (or .def_14 .def_13))) (let ((.def_16 (not .def_15))) (let ((.def_17 (not A14))) (let ((.def_18 (or .def_17 A18))) (let ((.def_19 (not A9))) (let ((.def_20 (not A1))) (let ((.def_21 (or .def_20 .def_19))) (let ((.def_22 (and .def_21 .def_18))) (let ((.def_23 (or .def_22 .def_16))) (let ((.def_24 (not .def_23))) (let ((.def_25 (and .def_24 .def_11))) (let ((.def_26 (not A17))) (let ((.def_27 (not A0))) (let ((.def_28 (and .def_27 .def_26))) (let ((.def_29 (not .def_28))) (let ((.def_30 (not A22))) (let ((.def_31 (or A21 .def_30))) (let ((.def_32 (not .def_31))) (let ((.def_33 (= .def_32 .def_29))) (let ((.def_34 (not .def_33))) (let ((.def_35 (or A7 .def_20))) (let ((.def_36 (not .def_35))) (let ((.def_37 (not A4))) (let ((.def_38 (not A15))) (let ((.def_39 (and .def_38 .def_37))) (let ((.def_40 (not .def_39))) (let ((.def_41 (or .def_40 .def_36))) (let ((.def_42 (not .def_41))) (let ((.def_43 (and .def_42 .def_34))) (let ((.def_44 (and A8 A24))) (let ((.def_45 (not .def_44))) (let ((.def_46 (not A20))) (let ((.def_47 (or .def_19 .def_46))) (let ((.def_48 (not .def_47))) (let ((.def_49 (and .def_48 .def_45))) (let ((.def_50 (not .def_49))) (let ((.def_51 (not A10))) (let ((.def_52 (and .def_12 .def_51))) (let ((.def_53 (not A3))) (let ((.def_54 (and .def_46 .def_53))) (let ((.def_55 (and .def_54 .def_52))) (let ((.def_56 (not .def_55))) (let ((.def_57 (and .def_56 .def_50))) (let ((.def_58 (and .def_57 .def_43))) (let ((.def_59 (not .def_58))) (let ((.def_60 (and .def_59 .def_25))) (let ((.def_61 (or .def_20 A6))) (let ((.def_62 (not .def_61))) (let ((.def_63 (not A23))) (let ((.def_64 (or .def_63 A3))) (let ((.def_65 (and .def_64 .def_62))) (let ((.def_66 (not .def_65))) (let ((.def_67 (or A17 A16))) (let ((.def_68 (and .def_37 .def_38))) (let ((.def_69 (or .def_68 .def_67))) (let ((.def_70 (not .def_69))) (let ((.def_71 (and .def_70 .def_66))) (let ((.def_72 (not A19))) (let ((.def_73 (or .def_72 A10))) (let ((.def_74 (not .def_73))) (let ((.def_75 (or .def_37 A19))) (let ((.def_76 (not .def_75))) (let ((.def_77 (and .def_76 .def_74))) (let ((.def_78 (or A20 .def_30))) (let ((.def_79 (not .def_78))) (let ((.def_80 (and A4 A2))) (let ((.def_81 (or .def_80 .def_79))) (let ((.def_82 (and .def_81 .def_77))) (let ((.def_83 (or .def_82 .def_71))) (let ((.def_84 (or .def_46 A16))) (let ((.def_85 (or .def_12 .def_19))) (let ((.def_86 (not .def_85))) (let ((.def_87 (and .def_86 .def_84))) (let ((.def_88 (or A6 A13))) (let ((.def_89 (or A12 .def_19))) (let ((.def_90 (and .def_89 .def_88))) (let ((.def_91 (not .def_90))) (let ((.def_92 (and .def_91 .def_87))) (let ((.def_93 (not A16))) (let ((.def_94 (and .def_93 .def_38))) (let ((.def_95 (not A12))) (let ((.def_96 (or .def_95 A15))) (let ((.def_97 (not .def_96))) (let ((.def_98 (or .def_97 .def_94))) (let ((.def_99 (not .def_98))) (let ((.def_100 (= .def_63 A20))) (let ((.def_101 (and A11 A10))) (let ((.def_102 (not .def_101))) (let ((.def_103 (= .def_102 .def_100))) (let ((.def_104 (or .def_103 .def_99))) (let ((.def_105 (not .def_104))) (let ((.def_106 (or .def_105 .def_92))) (let ((.def_107 (and .def_106 .def_83))) (let ((.def_108 (not .def_107))) (let ((.def_109 (and .def_108 .def_60))) (let ((.def_110 (not .def_109))) (let ((.def_111 (= A3 .def_27))) (let ((.def_112 (not .def_111))) (let ((.def_113 (and .def_51 A19))) (let ((.def_114 (= .def_113 .def_112))) (let ((.def_115 (not .def_114))) (let ((.def_116 (= .def_19 A14))) (let ((.def_117 (not .def_116))) (let ((.def_118 (and .def_26 A6))) (let ((.def_119 (or .def_118 .def_117))) (let ((.def_120 (= .def_119 .def_115))) (let ((.def_121 (not .def_120))) (let ((.def_122 (not A21))) (let ((.def_123 (and .def_122 A1))) (let ((.def_124 (not .def_123))) (let ((.def_125 (not A6))) (let ((.def_126 (and .def_125 .def_0))) (let ((.def_127 (not .def_126))) (let ((.def_128 (or .def_127 .def_124))) (let ((.def_129 (not .def_128))) (let ((.def_130 (not A5))) (let ((.def_131 (or .def_46 .def_130))) (let ((.def_132 (not .def_131))) (let ((.def_133 (and .def_0 A5))) (let ((.def_134 (not .def_133))) (let ((.def_135 (= .def_134 .def_132))) (let ((.def_136 (or .def_135 .def_129))) (let ((.def_137 (or .def_136 .def_121))) (let ((.def_138 (not .def_137))) (let ((.def_139 (and A1 A2))) (let ((.def_140 (not .def_139))) (let ((.def_141 (and A6 .def_26))) (let ((.def_142 (not .def_141))) (let ((.def_143 (or .def_142 .def_140))) (let ((.def_144 (not .def_143))) (let ((.def_145 (and A21 .def_63))) (let ((.def_146 (and A16 A1))) (let ((.def_147 (not .def_146))) (let ((.def_148 (and .def_147 .def_145))) (let ((.def_149 (or .def_148 .def_144))) (let ((.def_150 (or A2 .def_26))) (let ((.def_151 (not A11))) (let ((.def_152 (or .def_151 A0))) (let ((.def_153 (not .def_152))) (let ((.def_154 (or .def_153 .def_150))) (let ((.def_155 (or .def_20 A15))) (let ((.def_156 (and .def_26 A16))) (let ((.def_157 (not .def_156))) (let ((.def_158 (and .def_157 .def_155))) (let ((.def_159 (not .def_158))) (let ((.def_160 (= .def_159 .def_154))) (let ((.def_161 (not .def_160))) (let ((.def_162 (or .def_161 .def_149))) (let ((.def_163 (or .def_162 .def_138))) (let ((.def_164 (and .def_27 A20))) (let ((.def_165 (or .def_38 A20))) (let ((.def_166 (not .def_165))) (let ((.def_167 (= .def_166 .def_164))) (let ((.def_168 (and .def_93 .def_26))) (let ((.def_169 (and .def_0 .def_0))) (let ((.def_170 (not .def_169))) (let ((.def_171 (or .def_170 .def_168))) (let ((.def_172 (and .def_171 .def_167))) (let ((.def_173 (= .def_27 A5))) (let ((.def_174 (not .def_173))) (let ((.def_175 (or .def_93 .def_17))) (let ((.def_176 (not .def_175))) (let ((.def_177 (or .def_176 .def_174))) (let ((.def_178 (not .def_177))) (let ((.def_179 (or .def_72 .def_72))) (let ((.def_180 (and .def_179 .def_118))) (let ((.def_181 (not .def_180))) (let ((.def_182 (or .def_181 .def_178))) (let ((.def_183 (not .def_182))) (let ((.def_184 (and .def_183 .def_172))) (let ((.def_185 (not A8))) (let ((.def_186 (and .def_185 A12))) (let ((.def_187 (not .def_186))) (let ((.def_188 (or A9 .def_19))) (let ((.def_189 (= .def_188 .def_187))) (let ((.def_190 (and A18 .def_95))) (let ((.def_191 (and .def_122 A4))) (let ((.def_192 (not .def_191))) (let ((.def_193 (and .def_192 .def_190))) (let ((.def_194 (not .def_193))) (let ((.def_195 (= .def_194 .def_189))) (let ((.def_196 (or A15 A4))) (let ((.def_197 (not .def_196))) (let ((.def_198 (or .def_29 .def_197))) (let ((.def_199 (and .def_185 A20))) (let ((.def_200 (or A3 .def_27))) (let ((.def_201 (not .def_200))) (let ((.def_202 (and .def_201 .def_199))) (let ((.def_203 (not .def_202))) (let ((.def_204 (or .def_203 .def_198))) (let ((.def_205 (not .def_204))) (let ((.def_206 (and .def_205 .def_195))) (let ((.def_207 (not .def_206))) (let ((.def_208 (or .def_207 .def_184))) (let ((.def_209 (and .def_208 .def_163))) (let ((.def_210 (and .def_209 .def_110))) (let ((.def_211 (not .def_210))) .def_211)))))))))))))))))))))))))))))))))))))))))))))))))))))))))))))))))))))))))))))))))))))))))))))))))))))))))))))))))))))))))))))))))))))))))))))))))))))))))))))))))))))))))))))))))))))))))))))))))))))))))))))))))))))
(check-sat)
